Welcome to sphere packing routines, relation testing division.
Welcome to Section A.4.5.1.2.  
Enter cell count limit:  Enter slop:  		Slop = 0
Starting time:  	Sun Jul 19 06:58:15 1998

Case 1:
rhs = -0.261800000000000033
2.509999999999999787	2.828427124746190291
2.000000000000000000	2.510000000000000231
2.000000000000000000	2.510000000000000231
2.000000000000000000	2.510000000000000231
2.000000000000000000	2.510000000000000231
2.000000000000000000	2.510000000000000231

cellcount    =           576295		maxdepth = 6
partialpushes=            50904
largecut     =                0		discards     =                0
smallcut     =                0		verifycount  =           420818
partialcount =           131961		diff         =            23516
Verification succeeded.

Case 2:
rhs = -0.251400000000000012
2.509999999999999787	2.828427124746190291
2.000000000000000000	2.510000000000000231
2.000000000000000000	2.510000000000000231
2.000000000000000000	2.510000000000000231
2.000000000000000000	2.510000000000000231
2.000000000000000000	2.510000000000000231

cellcount    =         62985961		maxdepth = 13
partialpushes=           529167
largecut     =                0		discards     =                0
smallcut     =                0		verifycount  =         58987118
partialcount =          2977794		diff         =          1021049
Verification succeeded.

All verifications succeeded.

Done.
Ending time:    	Sun Jul 19 07:33:38 1998

Elapsed time: 2123 seconds,		diff = 2106.2
63562256 cells considered,		29939.8 cells per second


